
<<< setup


<<< generate

Version identifier: 12.10.0.0 | 2019-11-26 | 843d4de2ae
CPXPARAM_TimeLimit                               1200
Tried aggregator 3 times.
MIP Presolve eliminated 5141732 rows and 2907583 columns.
MIP Presolve modified 413884 coefficients.
Aggregator did 769 substitutions.
Reduced MIP has 100549 rows, 103198 columns, and 656151 nonzeros.
Reduced MIP has 103148 binaries, 0 generals, 0 SOSs, and 0 indicators.
Presolve time = 7.45 sec. (4685.46 ticks)
Found incumbent of value 3330.000000 after 10.97 sec. (6088.75 ticks)
Probing fixed 2272 vars, tightened 0 bounds.
Probing time = 41.09 sec. (7917.97 ticks)
Tried aggregator 1 time.
Detecting symmetries...
MIP Presolve eliminated 2272 rows and 2272 columns.
Reduced MIP has 98277 rows, 100926 columns, and 640882 nonzeros.
Reduced MIP has 100876 binaries, 0 generals, 0 SOSs, and 0 indicators.
Presolve time = 0.81 sec. (460.87 ticks)
Probing time = 0.28 sec. (52.12 ticks)
Clique table members: 355456.
MIP emphasis: balance optimality and feasibility.
MIP search method: dynamic search.
Parallel mode: deterministic, using up to 4 threads.
Root relaxation solution time = 4.09 sec. (2327.51 ticks)

        Nodes                                         Cuts/
   Node  Left     Objective  IInf  Best Integer    Best Bound    ItCnt     Gap

*     0+    0                         3330.0000   108637.0000              --- 
      0     0    59773.0000   488     3330.0000    59773.0000     7001     --- 
*     0+    0                        27414.0000    59773.0000           118.04%
      0     0    59773.0000   488    27414.0000       Cuts: 5    16380  118.04%
      0     0    59773.0000   488    27414.0000    Cuts: 8137    28088  118.04%
      0     0    59773.0000   488    27414.0000    Cuts: 2084    37065  118.04%
*     0+    0                        28718.0000    59773.0000           108.14%
*     0+    0                        29460.0000    59773.0000           102.90%
      0     0        cutoff          29460.0000    59773.0000    37065  102.90%
      0     0    59773.0000   488    29460.0000    Cuts: 5075    51055  102.90%
      0     0    59773.0000   488    29460.0000    Cuts: 2323    67479  102.90%
Heuristic still looking.
      0     2    59773.0000   159    29460.0000    59773.0000    67479  102.90%
Elapsed time = 400.44 sec. (190529.98 ticks, tree = 0.02 MB, solutions = 4)
      1     3    59773.0000   156    29460.0000    59773.0000    67729  102.90%
      2     4    59773.0000   281    29460.0000    59773.0000    75659  102.90%
      3     4    59773.0000   175    29460.0000    59773.0000    67842  102.90%
      4     6    59773.0000   240    29460.0000    59773.0000    80094  102.90%
      6     8    59773.0000   354    29460.0000    59773.0000   104431  102.90%
      7     7    59773.0000   336    29460.0000    59773.0000    86685  102.90%
      8     5    59773.0000   356    29460.0000    59773.0000    86718  102.90%
      9    10    59773.0000   344    29460.0000    59773.0000   123501  102.90%
     10     9    59773.0000   354    29460.0000    59773.0000   116759  102.90%
     11    11    59773.0000   376    29460.0000    59773.0000   138269  102.90%
Elapsed time = 458.83 sec. (212573.05 ticks, tree = 0.99 MB, solutions = 4)
     12    13    59773.0000   361    29460.0000    59773.0000   152166  102.90%
     13    11    59773.0000   387    29460.0000    59773.0000   137612  102.90%
     16    16    59773.0000   368    29460.0000    59773.0000   179312  102.90%
     17    17    59773.0000   372    29460.0000    59773.0000   181307  102.90%
     20    16    59773.0000   347    29460.0000    59773.0000   203469  102.90%
     22    19    59773.0000   356    29460.0000    59773.0000   190531  102.90%
     23    19    59773.0000   379    29460.0000    59773.0000   229908  102.90%
     24    20    59773.0000   378    29460.0000    59773.0000   231341  102.90%
     26    24    59773.0000   298    29460.0000    59773.0000   242269  102.90%
     29    26    59773.0000   363    29460.0000    59773.0000   246310  102.90%
Elapsed time = 497.72 sec. (229681.63 ticks, tree = 0.66 MB, solutions = 4)
     33    30    59773.0000   296    29460.0000    59773.0000   275075  102.90%
     37    33    59773.0000   308    29460.0000    59773.0000   279267  102.90%
     38    29    59773.0000   280    29460.0000    59773.0000   261990  102.90%
     40    29    59773.0000   251    29460.0000    59773.0000   255623  102.90%
     42    33    59773.0000   360    29460.0000    59773.0000   291670  102.90%
     45    39    59773.0000   289    29460.0000    59773.0000   313553  102.90%
     48    44    59773.0000   303    29460.0000    59773.0000   331042  102.90%
     55    46    59773.0000   322    29460.0000    59773.0000   333448  102.90%
     60    56    59773.0000   353    29460.0000    59773.0000   353877  102.90%
     62    57    59773.0000   281    29460.0000    59773.0000   355005  102.90%
Elapsed time = 536.44 sec. (243818.03 ticks, tree = 2.28 MB, solutions = 4)
     68    49    59773.0000   175    29460.0000    59773.0000   345928  102.90%
     71    55    59773.0000   294    29460.0000    59773.0000   345471  102.90%
     75    56    59773.0000   278    29460.0000    59773.0000   346058  102.90%
     81    54    59773.0000   197    29460.0000    59773.0000   360659  102.90%
     90    88    59773.0000   208    29460.0000    59773.0000   417964  102.90%
     96    71    59773.0000   306    29460.0000    59773.0000   395327  102.90%
    101    72    59773.0000   298    29460.0000    59773.0000   398666  102.90%
    109    69    59773.0000   277    29460.0000    59773.0000   372669  102.90%
    113    75    59773.0000   378    29460.0000    59773.0000   403588  102.90%
    117    76    59773.0000   326    29460.0000    59773.0000   404695  102.90%
Elapsed time = 565.67 sec. (254925.04 ticks, tree = 2.34 MB, solutions = 4)
    121    80    59773.0000   335    29460.0000    59773.0000   396763  102.90%
    127   101    59773.0000   219    29460.0000    59773.0000   429464  102.90%
    136   121    59773.0000   203    29460.0000    59773.0000   462876  102.90%
    145   114    59773.0000   257    29460.0000    59773.0000   449861  102.90%
    149   126    59773.0000   150    29460.0000    59773.0000   466304  102.90%
    158   108    59773.0000   222    29460.0000    59773.0000   434027  102.90%
    163   131    59773.0000   157    29460.0000    59773.0000   470471  102.90%
    169   134    59773.0000   163    29460.0000    59773.0000   473623  102.90%
    179   136    59773.0000   113    29460.0000    59773.0000   475927  102.90%
*   189+  115                        59773.0000    59773.0000             0.00%
    189   140    infeasible          59773.0000    59773.0000   479048    0.00%
Elapsed time = 589.94 sec. (265571.69 ticks, tree = 5.30 MB, solutions = 5)
    196   143    59773.0000   170    59773.0000    59773.0000   480463    0.00%
    199   152    59773.0000   231    59773.0000    59773.0000   483402    0.00%
    203   156    59773.0000   205    59773.0000    59773.0000   485191    0.00%
    206   157    59773.0000   203    59773.0000    59773.0000   486737    0.00%
    212   141    59773.0000   200    59773.0000    59773.0000   483533    0.00%

Implied bound cuts applied:  2168
Flow cuts applied:  138
Mixed integer rounding cuts applied:  968
Gomory fractional cuts applied:  1

Root node processing (before b&c):
  Real time             =  390.75 sec. (187259.84 ticks)
Parallel b&c, 4 threads:
  Real time             =  208.80 sec. (84670.35 ticks)
  Sync time (average)   =   28.54 sec.
  Wait time (average)   =    0.00 sec.
                          ------------
Total (root+branch&cut) =  599.55 sec. (271930.19 ticks)

<<< solve


OBJECTIVE: 59773

<<< post process


<<< done

